p cnf 96 1024
-89 90 92 0
-87 -88 96 0
86 -89 -90 0
-84 -89 94 0
84 -89 92 0
81 -85 -88 0
-81 84 -85 0
80 85 94 0
-79 89 -91 0
-79 83 85 0
77 -78 -96 0
76 90 93 0
75 -88 -94 0
73 84 -92 0
73 80 91 0
-73 80 81 0
73 -77 -93 0
-72 90 93 0
72 -83 -85 0
72 81 -87 0
-72 -77 90 0
-71 -81 -82 0
71 77 96 0
70 -89 -92 0
70 -86 -89 0
-70 78 -92 0
-70 -72 -92 0
-69 74 -95 0
-69 74 -78 0
68 -82 -88 0
-68 -75 -77 0
-68 -71 89 0
-67 80 -96 0
-67 -72 -93 0
67 -72 -81 0
67 -72 -73 0
-67 -69 80 0
-66 75 96 0
65 93 -94 0
-65 -74 -83 0
65 -72 -86 0
64 79 94 0
64 77 -78 0
64 66 81 0
63 -82 -94 0
63 77 85 0
63 -73 86 0
62 84 95 0
-62 -83 -85 0
-62 -67 75 0
61 -87 -93 0
61 77 -81 0
61 -73 -95 0
61 72 -76 0
-61 -66 -94 0
-61 -64 -85 0
-61 63 -72 0
-60 70 -87 0
-60 -63 72 0
-59 89 95 0
-59 88 89 0
59 -79 -93 0
-59 79 86 0
-59 73 -75 0
59 64 -69 0
59 63 -89 0
59 60 -70 0
58 87 93 0
-58 -79 -92 0
-58 -76 -93 0
-58 -69 85 0
58 63 71 0
-58 -62 96 0
-57 88 -91 0
-57 -83 90 0
-57 81 -86 0
-57 73 -90 0
-57 68 -83 0
57 64 -86 0
-57 -58 -64 0
56 -84 86 0
-56 67 -74 0
56 62 93 0
-56 61 71 0
-56 61 70 0
55 -85 94 0
-55 80 -88 0
55 -67 70 0
-55 -62 -79 0
-55 -58 -81 0
-55 57 75 0
54 -83 94 0
-54 -81 -94 0
54 -62 -94 0
-54 -60 93 0
-53 -89 -92 0
53 88 -96 0
53 -81 94 0
53 -72 -94 0
-53 -70 86 0
-53 69 95 0
-53 59 -79 0
-53 -58 95 0
53 -55 75 0
-52 -80 95 0
-52 -79 -96 0
-52 -79 -86 0
-52 74 -87 0
52 73 -84 0
52 -60 94 0
52 57 -82 0
-52 -55 -69 0
51 -91 96 0
51 80 -93 0
51 60 -94 0
-51 53 73 0
51 -52 -92 0
-50 -71 -93 0
-50 70 -76 0
50 64 -84 0
-50 64 80 0
50 -64 66 0
50 62 74 0
-50 -61 64 0
-50 52 55 0
49 -78 -79 0
49 -73 -88 0
-49 -68 -73 0
-49 67 72 0
49 -66 68 0
-49 -51 -62 0
49 50 58 0
48 -95 96 0
-48 -84 -87 0
48 -72 74 0
48 -63 91 0
48 -57 -64 0
48 56 93 0
48 -50 89 0
48 50 -63 0
47 -83 -88 0
-47 -77 -87 0
-47 72 92 0
-47 60 72 0
47 57 90 0
47 56 66 0
-47 -53 -88 0
47 52 65 0
46 -93 -95 0
-46 -79 -80 0
-46 -75 82 0
-46 -71 93 0
46 -71 92 0
-46 -71 -76 0
-46 -67 91 0
46 -66 -90 0
46 -64 81 0
46 -51 -67 0
46 49 -56 0
-46 -48 -69 0
-46 -47 -90 0
-45 82 93 0
45 -78 -95 0
45 -68 82 0
-45 -66 91 0
45 -65 -84 0
-45 64 83 0
45 -62 88 0
-45 -62 -74 0
45 -51 -55 0
45 -51 53 0
45 47 95 0
-45 -46 69 0
44 87 -90 0
44 86 94 0
-44 83 -90 0
44 75 84 0
-44 73 -81 0
-44 -70 73 0
-44 69 93 0
-44 66 -80 0
-44 -59 -62 0
44 54 -68 0
44 51 -92 0
-44 -50 61 0
-44 -49 88 0
-43 -77 -94 0
43 68 82 0
-43 -63 75 0
43 -58 78 0
43 58 72 0
-43 57 -66 0
-43 55 -69 0
-43 -47 -92 0
43 47 -71 0
43 -44 57 0
-42 91 95 0
42 70 77 0
42 -69 -76 0
42 66 81 0
-42 -62 72 0
42 60 92 0
42 -51 61 0
42 50 -96 0
-42 50 86 0
-42 -46 69 0
41 -86 -92 0
41 83 -85 0
-41 82 -93 0
41 -72 -91 0
41 61 88 0
-41 46 86 0
-41 43 50 0
-40 71 88 0
40 68 71 0
40 64 -71 0
40 50 -80 0
40 46 -90 0
40 45 81 0
-40 -44 82 0
-40 -43 75 0
40 -42 -79 0
40 42 -50 0
39 -94 96 0
-39 93 -96 0
-39 -78 -86 0
39 72 -86 0
-39 -66 95 0
39 66 -68 0
39 -65 -90 0
39 -65 87 0
39 63 66 0
-39 59 92 0
-39 -56 -72 0
39 -56 61 0
39 -54 91 0
-39 52 82 0
-39 49 -94 0
-39 48 -83 0
-39 -48 -56 0
39 -47 -81 0
39 -40 -79 0
-38 -77 84 0
-38 68 91 0
38 65 75 0
-38 -63 81 0
-38 60 93 0
-38 -60 -91 0
38 60 77 0
-38 -59 -74 0
-38 -54 -83 0
-38 -54 61 0
-38 52 -69 0
-38 42 -95 0
-38 -39 -77 0
-37 -72 -79 0
-37 66 -93 0
-37 -63 89 0
37 62 69 0
37 -61 -68 0
-37 59 -62 0
37 -57 88 0
37 -56 81 0
-37 51 -80 0
-37 46 66 0
-36 -86 88 0
-36 78 -93 0
36 78 -81 0
36 71 -80 0
36 64 -96 0
36 -63 -87 0
36 -60 84 0
-36 -57 -85 0
-36 57 83 0
36 -52 -89 0
36 47 -86 0
-36 47 -86 0
36 44 -50 0
-36 -40 89 0
36 -40 54 0
36 -40 -49 0
-36 -38 73 0
35 -78 96 0
-35 -75 -96 0
35 -65 -86 0
-35 56 -76 0
35 -56 74 0
35 -52 -66 0
35 -51 89 0
-35 44 -46 0
35 -42 93 0
-35 -42 -83 0
-35 38 -59 0
-35 38 53 0
-35 -36 65 0
-34 -80 -92 0
34 -68 -71 0
-34 60 69 0
-34 -57 86 0
34 -56 -69 0
34 -56 61 0
34 -53 60 0
34 -49 -79 0
-34 -49 -53 0
-34 47 79 0
34 46 91 0
-34 -46 73 0
34 44 63 0
34 41 -68 0
34 39 80 0
-34 36 60 0
34 -35 87 0
-33 83 86 0
33 82 -88 0
-33 -81 -84 0
33 79 96 0
-33 79 84 0
33 77 96 0
33 74 -90 0
33 -66 75 0
-33 -65 -80 0
33 -59 93 0
-33 -58 -60 0
-33 55 80 0
33 -47 66 0
33 46 -95 0
-33 44 85 0
-33 41 -71 0
33 -36 44 0
-33 -34 75 0
-32 88 -95 0
-32 87 -92 0
-32 -83 -96 0
-32 -72 -86 0
32 -72 82 0
-32 -68 -95 0
-32 66 81 0
-32 -61 73 0
32 57 -81 0
-32 55 73 0
32 -52 -88 0
-32 48 87 0
-32 39 -91 0
-32 -37 -73 0
32 -35 87 0
-32 35 46 0
31 79 -81 0
31 68 74 0
31 63 -85 0
31 62 81 0
31 -61 75 0
31 -59 -79 0
-31 52 69 0
-31 52 -68 0
-31 50 -54 0
-31 -49 50 0
31 -47 -79 0
31 -46 92 0
-31 -46 -90 0
-31 -42 82 0
31 -40 85 0
31 40 -52 0
31 -39 -94 0
31 -39 -51 0
31 35 -80 0
-30 -90 -96 0
30 88 94 0
30 -72 -81 0
30 63 65 0
-30 58 94 0
-30 -56 -58 0
30 -54 -56 0
30 -52 66 0
30 50 86 0
30 48 -86 0
30 -47 86 0
30 -45 -54 0
-30 -43 -79 0
30 -36 -52 0
-30 35 -71 0
-30 -33 -92 0
-30 33 -47 0
-30 33 35 0
-30 32 -55 0
30 31 -38 0
29 79 -84 0
29 -71 -83 0
29 -64 -77 0
29 61 84 0
29 60 77 0
29 -60 -70 0
29 53 -83 0
-29 -53 -71 0
29 45 64 0
29 -34 50 0
29 30 -74 0
-28 -78 -86 0
28 69 87 0
28 -65 86 0
28 58 74 0
28 -56 -74 0
-28 -52 84 0
28 -52 -65 0
28 51 -72 0
-28 49 -93 0
-28 49 -57 0
-28 40 43 0
-28 37 -83 0
28 36 -57 0
28 -36 -46 0
28 -33 -41 0
-28 29 51 0
-27 -86 -91 0
-27 -79 -83 0
-27 -70 88 0
-27 62 -95 0
-27 62 -74 0
-27 -59 88 0
-27 56 92 0
-27 -56 73 0
-27 55 88 0
27 -54 58 0
27 -53 72 0
27 -51 65 0
27 48 65 0
-27 -44 55 0
27 41 -90 0
-27 -40 -93 0
27 40 -73 0
27 40 72 0
27 38 66 0
-27 -37 -87 0
27 -35 36 0
-27 34 -60 0
27 -31 56 0
-27 -31 -52 0
-27 28 92 0
-26 -87 94 0
26 -69 -91 0
26 64 82 0
26 -57 -66 0
-26 54 60 0
-26 52 -54 0
26 -46 -65 0
26 38 85 0
26 -38 -79 0
26 36 48 0
-26 -35 -96 0
26 -31 94 0
-26 -30 83 0
-26 -29 -44 0
-26 -28 61 0
-25 -88 93 0
25 81 -94 0
-25 -81 85 0
-25 -75 92 0
-25 70 84 0
-25 -67 81 0
-25 66 84 0
-25 -56 -90 0
-25 56 -80 0
-25 -55 -87 0
-25 51 -66 0
25 -46 -79 0
25 -43 -75 0
25 -41 -89 0
-25 41 47 0
-25 40 41 0
25 39 78 0
25 33 48 0
25 32 74 0
25 -31 -37 0
-25 -28 -71 0
-24 77 -83 0
24 -75 -85 0
24 -49 91 0
24 48 -61 0
24 39 73 0
24 38 59 0
24 -32 62 0
-24 31 91 0
24 -30 -62 0
-24 -27 66 0
24 -26 96 0
24 26 46 0
-23 -66 -83 0
23 62 -73 0
-23 -61 -92 0
-23 -60 84 0
-23 55 61 0
23 55 -59 0
23 -53 58 0
23 -50 -74 0
23 47 68 0
23 -28 -95 0
23 -28 78 0
-22 87 92 0
-22 -83 -91 0
22 80 84 0
-22 79 -91 0
-22 -66 94 0
22 -64 -74 0
-22 -60 -63 0
-22 58 -86 0
22 57 -92 0
22 55 64 0
-22 -54 -83 0
22 53 82 0
22 -52 92 0
-22 -50 -53 0
-22 49 89 0
22 -44 -77 0
22 -43 85 0
22 -42 -86 0
-22 -40 -80 0
-22 38 73 0
22 34 -96 0
22 31 -87 0
-22 28 50 0
-22 26 -57 0
-22 26 -40 0
22 -24 66 0
-21 -84 93 0
-21 74 96 0
-21 -74 -80 0
-21 72 -78 0
-21 67 -79 0
-21 -64 -87 0
21 -58 -71 0
21 58 -70 0
-21 -53 61 0
-21 -51 -54 0
-21 -46 -68 0
21 43 -92 0
-21 42 94 0
21 -39 91 0
21 -37 -59 0
-21 36 -80 0
-21 -36 -58 0
21 -35 43 0
21 -32 41 0
-21 31 -41 0
-21 28 -44 0
-21 -27 85 0
-21 -24 -74 0
21 -22 -56 0
-20 88 93 0
20 -78 -84 0
-20 -71 75 0
-20 67 73 0
-20 -66 94 0
20 -60 84 0
-20 -55 87 0
-20 -53 -93 0
-20 49 72 0
20 -48 -78 0
20 48 -61 0
20 44 59 0
20 42 72 0
20 38 96 0
-20 38 -92 0
20 -38 63 0
20 36 64 0
-20 33 68 0
-20 -31 87 0
-20 29 51 0
-20 26 81 0
-20 -24 -83 0
-20 -22 45 0
-19 -88 -91 0
19 -84 93 0
-19 73 -89 0
-19 59 -88 0
19 54 90 0
19 51 84 0
19 49 -71 0
19 -44 -91 0
-19 -42 -71 0
19 41 52 0
19 -40 45 0
19 39 58 0
19 -35 77 0
-19 30 82 0
19 -26 -57 0
-19 26 -54 0
19 26 38 0
19 25 -95 0
19 24 60 0
-19 -23 69 0
19 23 -68 0
19 -23 54 0
19 -20 32 0
18 93 96 0
-18 -78 -92 0
18 -62 -75 0
18 -53 -55 0
18 -51 -74 0
-18 51 69 0
18 -47 -84 0
18 44 -56 0
18 -39 -72 0
18 39 -54 0
-18 39 -40 0
-18 37 -88 0
-18 -37 -77 0
-18 -34 88 0
-18 34 -47 0
-18 -34 37 0
-18 -32 47 0
-18 -28 53 0
18 -26 -93 0
-18 25 -45 0
-18 21 66 0
18 19 77 0
-18 19 72 0
17 -83 -90 0
17 73 -94 0
17 -69 88 0
17 -64 73 0
17 -63 78 0
17 60 -86 0
-17 57 -72 0
-17 -54 89 0
-17 52 -77 0
-17 51 94 0
17 -51 70 0
-17 -51 55 0
17 48 55 0
-17 -45 -52 0
-17 43 61 0
-17 42 76 0
17 -41 -44 0
-17 -39 -66 0
-17 38 83 0
-17 -37 -71 0
17 33 90 0
17 32 94 0
-17 31 -50 0
-17 -31 -40 0
17 30 -43 0
17 28 -58 0
-17 25 -35 0
-17 23 81 0
-17 22 54 0
17 21 -33 0
-16 -85 95 0
16 -63 -83 0
16 56 -70 0
-16 54 -69 0
-16 -51 90 0
16 50 -72 0
16 -46 54 0
16 40 53 0
-16 -35 86 0
-16 35 38 0
16 -34 -92 0
16 33 92 0
-16 33 68 0
-16 31 -67 0
16 -29 -90 0
16 -28 -57 0
16 -27 38 0
16 -27 32 0
-16 26 52 0
16 20 94 0
16 -18 -77 0
15 91 -92 0
15 80 91 0
15 76 -88 0
15 -70 -91 0
-15 -57 -76 0
-15 53 59 0
15 -52 -54 0
-15 49 60 0
15 43 -84 0
15 39 92 0
-15 -38 -71 0
-15 -34 56 0
-15 33 -85 0
15 33 -64 0
-15 -31 32 0
-15 -28 -91 0
-15 -27 35 0
15 -25 -79 0
15 -25 37 0
-15 21 91 0
15 21 45 0
15 20 -26 0
15 16 88 0
-14 -86 96 0
-14 80 -87 0
14 -79 84 0
14 -74 94 0
14 -72 -91 0
14 72 -78 0
14 70 74 0
-14 69 -92 0
14 -69 -77 0
-14 62 71 0
14 -61 -92 0
-14 57 62 0
-14 49 53 0
-14 47 -92 0
14 -46 -57 0
-14 42 -75 0
14 -35 -47 0
14 34 52 0
-14 33 -87 0
14 32 -38 0
14 -30 48 0
14 29 32 0
-14 26 70 0
14 -25 -57 0
14 22 -47 0
14 22 -25 0
-14 -18 -73 0
-14 16 -19 0
-14 -15 -33 0
13 -87 -95 0
-13 81 -84 0
13 67 -72 0
-13 -63 88 0
13 -62 -81 0
13 62 74 0
13 60 87 0
-13 55 -79 0
-13 -54 73 0
-13 53 -62 0
-13 -52 -74 0
-13 -51 -86 0
13 51 79 0
13 -47 83 0
-13 -44 65 0
13 -44 60 0
13 -43 63 0
-13 -43 -50 0
13 -42 -88 0
-13 -37 75 0
-13 -37 -61 0
13 -37 -59 0
-13 36 54 0
13 -33 -49 0
-13 -31 -48 0
-13 -30 -93 0
13 -28 -57 0
-13 27 -72 0
13 -27 52 0
13 -24 35 0
13 -21 56 0
13 21 36 0
13 -20 64 0
13 -19 -32 0
-13 -19 -20 0
-13 -17 -82 0
13 -15 74 0
13 14 78 0
-12 -86 -92 0
-12 -78 -87 0
12 -78 79 0
-12 -73 89 0
-12 68 79 0
12 64 -77 0
12 63 82 0
12 -60 -94 0
12 59 -73 0
-12 -55 94 0
-12 -55 92 0
12 53 -72 0
12 -42 82 0
-12 40 -45 0
12 38 -72 0
-12 38 -68 0
12 -35 -88 0
12 27 -75 0
-12 27 61 0
-12 27 41 0
-12 -26 91 0
-12 -21 -67 0
12 19 -79 0
-12 -16 -72 0
12 16 -18 0
12 -15 -82 0
-12 15 63 0
-12 14 95 0
-12 14 76 0
12 -13 -61 0
11 -78 -92 0
-11 -69 89 0
-11 -63 83 0
-11 -62 -66 0
11 60 -81 0
11 -48 80 0
-11 39 74 0
11 -37 93 0
-11 -37 70 0
-11 37 40 0
11 36 -90 0
11 -36 41 0
11 35 -58 0
11 32 53 0
11 30 -56 0
-11 -29 54 0
11 25 -76 0
-11 -23 -69 0
11 23 -31 0
-11 -20 96 0
11 19 68 0
-11 -18 -74 0
-11 -14 39 0
11 -13 -55 0
10 68 85 0
-10 -68 -69 0
10 64 83 0
-10 -61 -90 0
-10 -48 95 0
10 -46 57 0
-10 40 -57 0
-10 34 -55 0
10 32 94 0
-10 -31 -76 0
10 31 48 0
-10 29 43 0
10 -29 -42 0
10 -24 77 0
10 21 86 0
10 -20 -76 0
-10 19 74 0
-10 19 54 0
-10 -18 -59 0
-10 -16 79 0
-10 16 -76 0
-10 -16 -38 0
-10 -14 -73 0
10 -14 -23 0
10 -11 73 0
10 11 50 0
-9 81 92 0
-9 -81 86 0
-9 -69 -90 0
9 -66 -92 0
-9 66 -82 0
-9 -63 -78 0
-9 -57 -79 0
-9 -55 66 0
9 -52 67 0
9 -49 85 0
9 -43 -51 0
-9 -42 -74 0
-9 41 75 0
9 -40 61 0
9 39 88 0
9 -38 77 0
9 -38 75 0
-9 36 46 0
9 34 96 0
9 32 33 0
-9 30 -41 0
-9 28 70 0
-9 27 -60 0
-9 -27 60 0
9 -24 -39 0
-9 23 -37 0
-9 -22 -43 0
9 -20 -57 0
-9 19 -26 0
-9 14 53 0
9 13 -89 0
9 -12 53 0
-8 -80 95 0
8 -79 86 0
8 -78 87 0
-8 -71 82 0
8 70 -71 0
8 68 75 0
8 60 -92 0
8 60 -67 0
8 59 -93 0
8 -59 74 0
8 -57 70 0
8 -53 -54 0
-8 51 -84 0
-8 -50 -54 0
8 47 55 0
-8 47 -53 0
8 44 57 0
8 -39 -70 0
-8 38 82 0
8 -34 -56 0
-8 29 60 0
-8 28 45 0
-8 -26 -81 0
8 20 74 0
8 -10 15 0
-7 -73 -87 0
7 71 -80 0
7 66 -96 0
-7 58 -77 0
7 55 95 0
7 -54 80 0
-7 54 78 0
7 49 -62 0
7 47 72 0
-7 44 -61 0
7 -39 -67 0
7 27 76 0
7 -25 52 0
7 -24 58 0
7 23 -74 0
7 16 -81 0
-7 15 -50 0
-7 12 67 0
-7 -10 -86 0
7 10 49 0
-6 -77 -92 0
6 -64 -96 0
6 62 90 0
-6 57 -93 0
6 57 66 0
-6 -54 -94 0
-6 -52 -60 0
6 40 -80 0
6 34 39 0
-6 31 -83 0
-6 22 -83 0
6 20 49 0
-6 18 87 0
6 18 -52 0
-6 -10 -91 0
-6 -9 -63 0
-5 91 96 0
5 84 -92 0
-5 -68 -87 0
5 52 -82 0
-5 47 59 0
-5 44 83 0
-5 -35 44 0
-5 29 -50 0
-5 -19 -87 0
-5 19 85 0
5 -15 -90 0
5 10 -45 0
-5 -9 -66 0
-5 8 51 0
5 -7 -93 0
-4 89 -90 0
4 -75 -77 0
-4 62 -73 0
-4 -61 -72 0
-4 -60 64 0
-4 -58 74 0
4 -57 -93 0
-4 53 -85 0
4 -52 96 0
4 47 -95 0
-4 41 89 0
4 34 71 0
4 29 36 0
-4 28 85 0
4 25 81 0
4 25 -76 0
-4 -25 74 0
4 -21 91 0
4 21 -23 0
-4 -16 -89 0
-4 12 96 0
4 8 -42 0
4 7 -93 0
-4 6 -92 0
-3 -87 -91 0
-3 -72 85 0
3 71 88 0
-3 -63 77 0
-3 -54 62 0
-3 47 -77 0
-3 40 -80 0
-3 -36 87 0
3 30 58 0
3 21 -33 0
-3 17 -62 0
3 -15 -22 0
-3 14 -80 0
3 13 65 0
3 12 82 0
-3 -11 -90 0
3 8 -27 0
3 5 13 0
2 -62 70 0
-2 -55 81 0
2 55 -63 0
2 -51 -94 0
2 47 74 0
2 45 77 0
2 41 -80 0
-2 39 50 0
-2 -34 -69 0
2 -30 -45 0
2 -23 -80 0
2 -21 -23 0
-2 -14 -92 0
2 12 46 0
2 11 94 0
2 11 66 0
-2 -7 48 0
2 5 -14 0
-2 -3 -40 0
1 63 -73 0
-1 -60 85 0
-1 -56 61 0
1 45 53 0
1 -38 55 0
1 -38 -45 0
1 -36 -80 0
1 -35 44 0
1 -32 -57 0
1 30 -77 0
1 22 -78 0
-1 -20 -63 0
-1 -18 -49 0
1 -17 -53 0
1 -16 -94 0
1 -11 50 0
1 -8 -87 0
-1 7 16 0
1 5 -12 0
